/*********************************************
 * OPL 12.6.0.0 Data
 * Author: Adrian Rodriguez Bazaga, Pau Rodriguez Esmerats
 * Creation Date: 06/12/2017 at 23:03:00
 *********************************************/

nNurses=203;
maxConsec=2;
maxPresence=7;
maxHours=5;
minHours=1;
hours=24;
demand= [37 33 43 50 33 43 50 36 26 18 1 9 1 10 5 7 5 5 4 1 26 49 27 39  ];
